language Essence 1.3

letting bot_end be [2214, 5188, 961, 1617, 3803, 2136, 4446, 2089, 1990, 192, 1957, 1849; int(1..12)]
letting bot_start be [2529, 776, 3139, 1569, 2599, 210, 3175, 4763, 69, 2862, 1281, 4503; int(1..12)]
letting bots be 12
letting buffer_col be 2
letting buffer_row be 2
letting corridor_size be 1
letting n_shelves_col be 53
letting n_shelves_row be 14
letting shelf_col_size be 2
letting shelf_row_size be 1
